
Gurobi 11.0.1 (win64) logging started Thu May 16 18:52:31 2024

Set parameter LogFile to value "output/solver_log21.txt"
Gurobi Optimizer version 11.0.1 build v11.0.1rc0 (win64 - Windows 11.0 (22631.2))

CPU model: 11th Gen Intel(R) Core(TM) i7-1165G7 @ 2.80GHz, instruction set [SSE2|AVX|AVX2|AVX512]
Thread count: 4 physical cores, 8 logical processors, using up to 8 threads

Optimize a model with 4911 rows, 1216 columns and 91525 nonzeros
Model fingerprint: 0x33c66296
Variable types: 568 continuous, 648 integer (648 binary)
Coefficient statistics:
  Matrix range     [4e-01, 1e+05]
  Objective range  [1e+00, 1e+02]
  Bounds range     [1e+00, 1e+00]
  RHS range        [1e-02, 1e+05]

User MIP start produced solution with objective 40325.9 (0.01s)
User MIP start produced solution with objective 40325.9 (0.01s)
Loaded user MIP start with objective 40325.9

Presolve removed 768 rows and 395 columns
Presolve time: 0.12s
Presolved: 4143 rows, 821 columns, 78777 nonzeros
Variable types: 525 continuous, 296 integer (290 binary)

Root relaxation: objective 4.992799e+04, 1548 iterations, 0.10 seconds (0.18 work units)

    Nodes    |    Current Node    |     Objective Bounds      |     Work
 Expl Unexpl |  Obj  Depth IntInf | Incumbent    BestBd   Gap | It/Node Time

     0     0 49927.9907    0   47 40325.9057 49927.9907  23.8%     -    0s
     0     0 48709.4071    0   44 40325.9057 48709.4071  20.8%     -    0s
     0     0 48608.9316    0   46 40325.9057 48608.9316  20.5%     -    0s
     0     0 48608.9316    0   50 40325.9057 48608.9316  20.5%     -    0s
     0     0 48608.9316    0   50 40325.9057 48608.9316  20.5%     -    0s
     0     0 47987.5868    0   53 40325.9057 47987.5868  19.0%     -    0s
     0     0 46836.3374    0   63 40325.9057 46836.3374  16.1%     -    0s
     0     0 46836.3374    0   60 40325.9057 46836.3374  16.1%     -    0s
     0     0 46836.3374    0   67 40325.9057 46836.3374  16.1%     -    1s
     0     0 46836.3374    0   70 40325.9057 46836.3374  16.1%     -    1s
     0     0 46836.3374    0   70 40325.9057 46836.3374  16.1%     -    1s
     0     0 46836.3374    0   71 40325.9057 46836.3374  16.1%     -    1s
     0     0 46836.3374    0   58 40325.9057 46836.3374  16.1%     -    1s
     0     0 46787.9173    0   71 40325.9057 46787.9173  16.0%     -    1s
     0     0 46786.5080    0   68 40325.9057 46786.5080  16.0%     -    1s
     0     0 46779.2305    0   71 40325.9057 46779.2305  16.0%     -    1s
     0     0 46773.2419    0   69 40325.9057 46773.2419  16.0%     -    1s
     0     0 46773.2280    0   69 40325.9057 46773.2280  16.0%     -    1s
     0     0 46770.7899    0   72 40325.9057 46770.7899  16.0%     -    1s
     0     0 46694.5370    0   72 40325.9057 46694.5370  15.8%     -    1s
     0     0 46694.5370    0   67 40325.9057 46694.5370  15.8%     -    2s
     0     0 46653.7819    0   67 40325.9057 46653.7819  15.7%     -    2s
     0     0 46653.7819    0   68 40325.9057 46653.7819  15.7%     -    2s
     0     0 46633.7704    0   69 40325.9057 46633.7704  15.6%     -    2s
     0     0 46633.7704    0   69 40325.9057 46633.7704  15.6%     -    2s
     0     0 46633.7704    0   71 40325.9057 46633.7704  15.6%     -    2s
     0     0 46633.7704    0   73 40325.9057 46633.7704  15.6%     -    2s
     0     0 46633.7704    0   74 40325.9057 46633.7704  15.6%     -    2s
     0     0 46633.7704    0   75 40325.9057 46633.7704  15.6%     -    2s
     0     0 46633.7704    0   73 40325.9057 46633.7704  15.6%     -    2s
     0     2 46633.7704    0   73 40325.9057 46633.7704  15.6%     -    2s
    91    70 43681.0627    7   40 40325.9057 44981.5855  11.5%   519    5s
   321    89 40421.3029   10   34 40325.9057 43518.0475  7.92%   585   10s
H  566    73                    40326.363718 42461.2203  5.29%   588   14s
   616    52     cutoff    8      40326.3637 42230.1485  4.72%   600   15s
H  807    87                    40327.968279 41413.1138  2.69%   545   19s
   871   191 40331.5226   54   13 40327.9683 41055.2012  1.80%   518   20s
  2341  1273 40333.0490   26   22 40327.9683 40333.1817  0.01%   235   25s
  2523  1278 40332.9531   37   71 40327.9683 40333.1817  0.01%   222   30s
  2537  1287 40332.0527   53   64 40327.9683 40333.1817  0.01%   221   35s
  2637  1258 40333.1817   27   21 40327.9683 40333.1817  0.01%   244   40s
  3186  1822 40330.6416   55   17 40327.9683 40333.1622  0.01%   210   46s
H 3929  1832                    40328.297020 40333.1564  0.01%   181   48s
  4921  1961 40331.8204   54   14 40328.2970 40333.1529  0.01%   152   50s
  9389  1770 infeasible   44      40328.2970 40333.1345  0.01%  86.6   55s
H 9400  1673                    40328.907870 40333.1345  0.01%  86.6   55s
H 9441  1584                    40329.399245 40333.1345  0.01%  86.6   55s

Cutting planes:
  Gomory: 2
  Implied bound: 6
  Projected implied bound: 1
  MIR: 26
  Flow cover: 40
  RLT: 3
  Relax-and-lift: 2

Explored 9454 nodes (830496 simplex iterations) in 55.88 seconds (120.93 work units)
Thread count was 8 (of 8 available processors)

Solution count 7: 40329.4 40329.4 40328.9 ... 40325.9

Optimal solution found (tolerance 1.00e-04)
Best objective 4.032939924548e+04, best bound 4.033313451488e+04, gap 0.0093%
